NAME          
ROWS
 N  OBJ
 L  c2
 L  c3
 L  c4
 L  c5
 L  c6
 L  c7
 L  c8
 L  c9
 L  c10
 L  c11
 G  c1
COLUMNS
    ss[1]     c1        1
    ss[1]     OBJ       1000
    s[1]      c2        1
    s[1]      OBJ       -1000
    s[2]      c3        1
    s[2]      OBJ       -1000
    s[3]      c4        1
    s[3]      OBJ       -1000
    s[4]      c5        1
    s[4]      OBJ       -1000
    s[5]      c6        1
    s[5]      OBJ       -1000
    s[6]      c7        1
    s[6]      OBJ       -1000
    s[7]      c8        1
    s[7]      OBJ       -1000
    s[8]      c9        1
    s[8]      OBJ       -1000
    s[9]      c10       1
    s[9]      OBJ       -1000
    s[10]     c11       1
    s[10]     OBJ       -1000
    MARKER    'MARKER'                 'INTORG'
    x[1]      c2        300
    x[1]      c3        727
    x[1]      c4        10
    x[1]      c5        243
    x[1]      c6        298
    x[1]      c7        596
    x[1]      c8        846
    x[1]      c9        113
    x[1]      c10       929
    x[1]      c11       492
    x[1]      c1        556
    x[1]      OBJ       -737
    x[2]      c2        312
    x[2]      c3        393
    x[2]      c4        573
    x[2]      c5        542
    x[2]      c6        841
    x[2]      c7        470
    x[2]      c8        275
    x[2]      c9        575
    x[2]      c10       232
    x[2]      c11       581
    x[2]      c1        736
    x[2]      OBJ       -560
    x[3]      c2        576
    x[3]      c3        192
    x[3]      c4        138
    x[3]      c5        212
    x[3]      c6        276
    x[3]      c7        904
    x[3]      c8        746
    x[3]      c9        747
    x[3]      c10       91
    x[3]      c11       916
    x[3]      c1        301
    x[3]      OBJ       -1029
    x[4]      c2        457
    x[4]      c3        689
    x[4]      c4        178
    x[4]      c5        103
    x[4]      c6        15
    x[4]      c7        327
    x[4]      c8        274
    x[4]      c9        970
    x[4]      c10       564
    x[4]      c11       686
    x[4]      c1        111
    x[4]      OBJ       -1005
    x[5]      c2        753
    x[5]      c3        360
    x[5]      c4        320
    x[5]      c5        402
    x[5]      c6        748
    x[5]      c7        662
    x[5]      c8        604
    x[5]      c9        657
    x[5]      c10       425
    x[5]      c11       692
    x[5]      c1        704
    x[5]      OBJ       -817
    x[6]      c2        964
    x[6]      c3        259
    x[6]      c4        813
    x[6]      c5        61
    x[6]      c6        562
    x[6]      c7        679
    x[6]      c8        602
    x[6]      c9        702
    x[6]      c10       489
    x[6]      c11       452
    x[6]      c1        408
    x[6]      OBJ       -1095
    x[7]      c2        561
    x[7]      c3        55
    x[7]      c4        810
    x[7]      c5        89
    x[7]      c6        840
    x[7]      c7        630
    x[7]      c8        7
    x[7]      c9        782
    x[7]      c10       418
    x[7]      c11       475
    x[7]      c1        163
    x[7]      OBJ       -1226
    x[8]      c2        826
    x[8]      c3        428
    x[8]      c4        102
    x[8]      c5        503
    x[8]      c6        610
    x[8]      c7        871
    x[8]      c8        415
    x[8]      c9        860
    x[8]      c10       370
    x[8]      c11       881
    x[8]      c1        315
    x[8]      OBJ       -1090
    x[9]      c2        136
    x[9]      c3        243
    x[9]      c4        601
    x[9]      c5        112
    x[9]      c6        844
    x[9]      c7        960
    x[9]      c8        845
    x[9]      c9        85
    x[9]      c10       710
    x[9]      c11       598
    x[9]      c1        670
    x[9]      OBJ       -894
    x[10]     c2        369
    x[10]     c3        859
    x[10]     c4        975
    x[10]     c5        131
    x[10]     c6        784
    x[10]     c7        632
    x[10]     c8        102
    x[10]     c9        397
    x[10]     c10       549
    x[10]     c11       304
    x[10]     c1        457
    x[10]     OBJ       -696
    x[11]     c2        372
    x[11]     c3        701
    x[11]     c4        335
    x[11]     c5        354
    x[11]     c6        294
    x[11]     c7        181
    x[11]     c8        533
    x[11]     c9        589
    x[11]     c10       316
    x[11]     c11       346
    x[11]     c1        357
    x[11]     OBJ       -1062
    x[12]     c2        510
    x[12]     c3        926
    x[12]     c4        935
    x[12]     c5        748
    x[12]     c6        290
    x[12]     c7        336
    x[12]     c8        119
    x[12]     c9        313
    x[12]     c10       906
    x[12]     c11       8
    x[12]     c1        916
    x[12]     OBJ       -599
    x[13]     c2        34
    x[13]     c3        895
    x[13]     c4        694
    x[13]     c5        743
    x[13]     c6        676
    x[13]     c7        237
    x[13]     c8        872
    x[13]     c9        113
    x[13]     c10       126
    x[13]     c11       952
    x[13]     c1        614
    x[13]     OBJ       -949
    x[14]     c2        871
    x[14]     c3        584
    x[14]     c4        49
    x[14]     c5        324
    x[14]     c6        257
    x[14]     c7        176
    x[14]     c8        962
    x[14]     c9        310
    x[14]     c10       627
    x[14]     c11       937
    x[14]     c1        60
    x[14]     OBJ       -1146
    x[15]     c2        708
    x[15]     c3        115
    x[15]     c4        247
    x[15]     c5        723
    x[15]     c6        618
    x[15]     c7        783
    x[15]     c8        911
    x[15]     c9        39
    x[15]     c10       75
    x[15]     c11       924
    x[15]     c1        373
    x[15]     OBJ       -1088
    x[16]     c2        446
    x[16]     c3        927
    x[16]     c4        476
    x[16]     c5        763
    x[16]     c6        910
    x[16]     c7        70
    x[16]     c8        170
    x[16]     c9        669
    x[16]     c10       746
    x[16]     c11       71
    x[16]     c1        182
    x[16]     OBJ       -1297
    x[17]     c2        821
    x[17]     c3        191
    x[17]     c4        784
    x[17]     c5        242
    x[17]     c6        256
    x[17]     c7        873
    x[17]     c8        62
    x[17]     c9        891
    x[17]     c10       894
    x[17]     c11       266
    x[17]     c1        129
    x[17]     OBJ       -1079
    x[18]     c2        126
    x[18]     c3        508
    x[18]     c4        668
    x[18]     c5        621
    x[18]     c6        68
    x[18]     c7        320
    x[18]     c8        926
    x[18]     c9        445
    x[18]     c10       384
    x[18]     c11       406
    x[18]     c1        767
    x[18]     OBJ       -327
    x[19]     c2        646
    x[19]     c3        117
    x[19]     c4        550
    x[19]     c5        935
    x[19]     c6        389
    x[19]     c7        359
    x[19]     c8        762
    x[19]     c9        897
    x[19]     c10       505
    x[19]     c11       127
    x[19]     c1        896
    x[19]     OBJ       -417
    x[20]     c2        838
    x[20]     c3        891
    x[20]     c4        33
    x[20]     c5        905
    x[20]     c6        649
    x[20]     c7        726
    x[20]     c8        177
    x[20]     c9        804
    x[20]     c10       899
    x[20]     c11       705
    x[20]     c1        178
    x[20]     OBJ       -1229
    x[21]     c2        986
    x[21]     c3        231
    x[21]     c4        367
    x[21]     c5        327
    x[21]     c6        97
    x[21]     c7        253
    x[21]     c8        308
    x[21]     c9        36
    x[21]     c10       524
    x[21]     c11       502
    x[21]     c1        975
    x[21]     OBJ       -53
    x[22]     c2        180
    x[22]     c3        656
    x[22]     c4        116
    x[22]     c5        90
    x[22]     c6        231
    x[22]     c7        759
    x[22]     c8        550
    x[22]     c9        221
    x[22]     c10       578
    x[22]     c11       221
    x[22]     c1        226
    x[22]     OBJ       -1091
    x[23]     c2        758
    x[23]     c3        518
    x[23]     c4        781
    x[23]     c5        781
    x[23]     c6        477
    x[23]     c7        718
    x[23]     c8        755
    x[23]     c9        173
    x[23]     c10       17
    x[23]     c11       769
    x[23]     c1        404
    x[23]     OBJ       -1242
    x[24]     c2        448
    x[24]     c3        52
    x[24]     c4        680
    x[24]     c5        766
    x[24]     c6        52
    x[24]     c7        575
    x[24]     c8        79
    x[24]     c9        398
    x[24]     c10       294
    x[24]     c11       678
    x[24]     c1        833
    x[24]     OBJ       -525
    x[25]     c2        883
    x[25]     c3        918
    x[25]     c4        714
    x[25]     c5        311
    x[25]     c6        685
    x[25]     c7        786
    x[25]     c8        994
    x[25]     c9        481
    x[25]     c10       432
    x[25]     c11       338
    x[25]     c1        575
    x[25]     OBJ       -711
    x[26]     c2        993
    x[26]     c3        990
    x[26]     c4        954
    x[26]     c5        399
    x[26]     c6        872
    x[26]     c7        286
    x[26]     c8        369
    x[26]     c9        667
    x[26]     c10       133
    x[26]     c11       999
    x[26]     c1        340
    x[26]     OBJ       -988
    x[27]     c2        19
    x[27]     c3        299
    x[27]     c4        345
    x[27]     c5        233
    x[27]     c6        788
    x[27]     c7        89
    x[27]     c8        345
    x[27]     c9        932
    x[27]     c10       254
    x[27]     c11       896
    x[27]     c1        321
    x[27]     OBJ       -768
    x[28]     c2        285
    x[28]     c3        955
    x[28]     c4        79
    x[28]     c5        116
    x[28]     c6        54
    x[28]     c7        594
    x[28]     c8        336
    x[28]     c9        921
    x[28]     c10       58
    x[28]     c11       453
    x[28]     c1        580
    x[28]     OBJ       -825
    x[29]     c2        213
    x[29]     c3        752
    x[29]     c4        669
    x[29]     c5        967
    x[29]     c6        653
    x[29]     c7        151
    x[29]     c8        217
    x[29]     c9        361
    x[29]     c10       519
    x[29]     c11       79
    x[29]     c1        425
    x[29]     OBJ       -714
    x[30]     c2        738
    x[30]     c3        307
    x[30]     c4        616
    x[30]     c5        193
    x[30]     c6        549
    x[30]     c7        146
    x[30]     c8        713
    x[30]     c9        752
    x[30]     c10       182
    x[30]     c11       904
    x[30]     c1        955
    x[30]     OBJ       -451
    x[31]     c2        897
    x[31]     c3        807
    x[31]     c4        931
    x[31]     c5        731
    x[31]     c6        371
    x[31]     c7        155
    x[31]     c8        322
    x[31]     c9        775
    x[31]     c10       692
    x[31]     c11       675
    x[31]     c1        739
    x[31]     OBJ       -933
    x[32]     c2        43
    x[32]     c3        684
    x[32]     c4        247
    x[32]     c5        479
    x[32]     c6        429
    x[32]     c7        154
    x[32]     c8        299
    x[32]     c9        867
    x[32]     c10       907
    x[32]     c11       944
    x[32]     c1        473
    x[32]     OBJ       -795
    x[33]     c2        82
    x[33]     c3        313
    x[33]     c4        779
    x[33]     c5        228
    x[33]     c6        36
    x[33]     c7        963
    x[33]     c8        934
    x[33]     c9        27
    x[33]     c10       5
    x[33]     c11       895
    x[33]     c1        946
    x[33]     OBJ       -135
    x[34]     c2        199
    x[34]     c3        226
    x[34]     c4        121
    x[34]     c5        250
    x[34]     c6        577
    x[34]     c7        772
    x[34]     c8        999
    x[34]     c9        968
    x[34]     c10       624
    x[34]     c11       519
    x[34]     c1        666
    x[34]     OBJ       -697
    x[35]     c2        777
    x[35]     c3        836
    x[35]     c4        419
    x[35]     c5        802
    x[35]     c6        317
    x[35]     c7        897
    x[35]     c8        230
    x[35]     c9        953
    x[35]     c10       386
    x[35]     c11       457
    x[35]     c1        630
    x[35]     OBJ       -1006
    x[36]     c2        956
    x[36]     c3        828
    x[36]     c4        993
    x[36]     c5        793
    x[36]     c6        804
    x[36]     c7        731
    x[36]     c8        209
    x[36]     c9        724
    x[36]     c10       225
    x[36]     c11       746
    x[36]     c1        462
    x[36]     OBJ       -937
    x[37]     c2        539
    x[37]     c3        104
    x[37]     c4        216
    x[37]     c5        177
    x[37]     c6        944
    x[37]     c7        338
    x[37]     c8        577
    x[37]     c9        623
    x[37]     c10       229
    x[37]     c11       257
    x[37]     c1        841
    x[37]     OBJ       -498
    x[38]     c2        589
    x[38]     c3        154
    x[38]     c4        87
    x[38]     c5        550
    x[38]     c6        988
    x[38]     c7        731
    x[38]     c8        452
    x[38]     c9        227
    x[38]     c10       986
    x[38]     c11       833
    x[38]     c1        2
    x[38]     OBJ       -1350
    x[39]     c2        243
    x[39]     c3        908
    x[39]     c4        76
    x[39]     c5        958
    x[39]     c6        99
    x[39]     c7        394
    x[39]     c8        438
    x[39]     c9        429
    x[39]     c10       157
    x[39]     c11       701
    x[39]     c1        778
    x[39]     OBJ       -696
    x[40]     c2        140
    x[40]     c3        412
    x[40]     c4        22
    x[40]     c5        212
    x[40]     c6        418
    x[40]     c7        629
    x[40]     c8        779
    x[40]     c9        237
    x[40]     c10       118
    x[40]     c11       426
    x[40]     c1        714
    x[40]     OBJ       -362
    x[41]     c2        232
    x[41]     c3        313
    x[41]     c4        709
    x[41]     c5        72
    x[41]     c6        827
    x[41]     c7        639
    x[41]     c8        188
    x[41]     c9        993
    x[41]     c10       386
    x[41]     c11       292
    x[41]     c1        855
    x[41]     OBJ       -325
    x[42]     c2        259
    x[42]     c3        843
    x[42]     c4        121
    x[42]     c5        521
    x[42]     c6        970
    x[42]     c7        516
    x[42]     c8        976
    x[42]     c9        878
    x[42]     c10       61
    x[42]     c11       606
    x[42]     c1        768
    x[42]     OBJ       -485
    x[43]     c2        599
    x[43]     c3        459
    x[43]     c4        550
    x[43]     c5        168
    x[43]     c6        387
    x[43]     c7        403
    x[43]     c8        451
    x[43]     c9        254
    x[43]     c10       667
    x[43]     c11       583
    x[43]     c1        141
    x[43]     OBJ       -963
    x[44]     c2        297
    x[44]     c3        275
    x[44]     c4        285
    x[44]     c5        383
    x[44]     c6        182
    x[44]     c7        997
    x[44]     c8        229
    x[44]     c9        276
    x[44]     c10       725
    x[44]     c11       12
    x[44]     c1        847
    x[44]     OBJ       -401
    x[45]     c2        367
    x[45]     c3        841
    x[45]     c4        715
    x[45]     c5        498
    x[45]     c6        606
    x[45]     c7        189
    x[45]     c8        948
    x[45]     c9        709
    x[45]     c10       275
    x[45]     c11       709
    x[45]     c1        325
    x[45]     OBJ       -1090
    x[46]     c2        781
    x[46]     c3        50
    x[46]     c4        547
    x[46]     c5        605
    x[46]     c6        591
    x[46]     c7        302
    x[46]     c8        387
    x[46]     c9        305
    x[46]     c10       814
    x[46]     c11       32
    x[46]     c1        765
    x[46]     OBJ       -470
    x[47]     c2        406
    x[47]     c3        749
    x[47]     c4        838
    x[47]     c5        746
    x[47]     c6        904
    x[47]     c7        676
    x[47]     c8        630
    x[47]     c9        362
    x[47]     c10       244
    x[47]     c11       241
    x[47]     c1        10
    x[47]     OBJ       -1569
    x[48]     c2        536
    x[48]     c3        364
    x[48]     c4        475
    x[48]     c5        365
    x[48]     c6        669
    x[48]     c7        424
    x[48]     c8        756
    x[48]     c9        554
    x[48]     c10       67
    x[48]     c11       123
    x[48]     c1        162
    x[48]     OBJ       -1154
    x[49]     c2        317
    x[49]     c3        392
    x[49]     c4        750
    x[49]     c5        790
    x[49]     c6        26
    x[49]     c7        542
    x[49]     c8        362
    x[49]     c9        246
    x[49]     c10       89
    x[49]     c11       185
    x[49]     c1        208
    x[49]     OBJ       -975
    x[50]     c2        729
    x[50]     c3        562
    x[50]     c4        996
    x[50]     c5        356
    x[50]     c6        39
    x[50]     c7        257
    x[50]     c8        748
    x[50]     c9        206
    x[50]     c10       464
    x[50]     c11       279
    x[50]     c1        981
    x[50]     OBJ       -576
    x[51]     c2        788
    x[51]     c3        807
    x[51]     c4        117
    x[51]     c5        957
    x[51]     c6        208
    x[51]     c7        963
    x[51]     c8        458
    x[51]     c9        262
    x[51]     c10       353
    x[51]     c11       158
    x[51]     c1        638
    x[51]     OBJ       -600
    x[52]     c2        844
    x[52]     c3        437
    x[52]     c4        953
    x[52]     c5        976
    x[52]     c6        23
    x[52]     c7        223
    x[52]     c8        112
    x[52]     c9        378
    x[52]     c10       807
    x[52]     c11       232
    x[52]     c1        184
    x[52]     OBJ       -1056
    x[53]     c2        848
    x[53]     c3        56
    x[53]     c4        494
    x[53]     c5        562
    x[53]     c6        142
    x[53]     c7        480
    x[53]     c8        518
    x[53]     c9        580
    x[53]     c10       559
    x[53]     c11       296
    x[53]     c1        124
    x[53]     OBJ       -1036
    x[54]     c2        846
    x[54]     c3        903
    x[54]     c4        581
    x[54]     c5        954
    x[54]     c6        16
    x[54]     c7        440
    x[54]     c8        645
    x[54]     c9        111
    x[54]     c10       559
    x[54]     c11       734
    x[54]     c1        910
    x[54]     OBJ       -373
    x[55]     c2        105
    x[55]     c3        334
    x[55]     c4        147
    x[55]     c5        335
    x[55]     c6        663
    x[55]     c7        204
    x[55]     c8        979
    x[55]     c9        688
    x[55]     c10       641
    x[55]     c11       82
    x[55]     c1        332
    x[55]     OBJ       -745
    x[56]     c2        837
    x[56]     c3        394
    x[56]     c4        392
    x[56]     c5        432
    x[56]     c6        396
    x[56]     c7        112
    x[56]     c8        490
    x[56]     c9        498
    x[56]     c10       576
    x[56]     c11       297
    x[56]     c1        634
    x[56]     OBJ       -496
    x[57]     c2        960
    x[57]     c3        711
    x[57]     c4        343
    x[57]     c5        341
    x[57]     c6        112
    x[57]     c7        322
    x[57]     c8        7
    x[57]     c9        777
    x[57]     c10       534
    x[57]     c11       303
    x[57]     c1        555
    x[57]     OBJ       -661
    x[58]     c2        485
    x[58]     c3        48
    x[58]     c4        446
    x[58]     c5        511
    x[58]     c6        363
    x[58]     c7        778
    x[58]     c8        579
    x[58]     c9        284
    x[58]     c10       797
    x[58]     c11       771
    x[58]     c1        55
    x[58]     OBJ       -1076
    x[59]     c2        36
    x[59]     c3        17
    x[59]     c4        690
    x[59]     c5        402
    x[59]     c6        799
    x[59]     c7        5
    x[59]     c8        750
    x[59]     c9        222
    x[59]     c10       103
    x[59]     c11       393
    x[59]     c1        396
    x[59]     OBJ       -720
    x[60]     c2        881
    x[60]     c3        285
    x[60]     c4        574
    x[60]     c5        124
    x[60]     c6        706
    x[60]     c7        538
    x[60]     c8        693
    x[60]     c9        879
    x[60]     c10       843
    x[60]     c11       403
    x[60]     c1        23
    x[60]     OBJ       -1444
    x[61]     c2        585
    x[61]     c3        142
    x[61]     c4        419
    x[61]     c5        537
    x[61]     c6        115
    x[61]     c7        498
    x[61]     c8        277
    x[61]     c9        826
    x[61]     c10       358
    x[61]     c11       604
    x[61]     c1        171
    x[61]     OBJ       -883
    x[62]     c2        327
    x[62]     c3        620
    x[62]     c4        304
    x[62]     c5        439
    x[62]     c6        343
    x[62]     c7        645
    x[62]     c8        30
    x[62]     c9        135
    x[62]     c10       788
    x[62]     c11       26
    x[62]     c1        310
    x[62]     OBJ       -799
    x[63]     c2        143
    x[63]     c3        783
    x[63]     c4        882
    x[63]     c5        18
    x[63]     c6        212
    x[63]     c7        155
    x[63]     c8        518
    x[63]     c9        698
    x[63]     c10       637
    x[63]     c11       225
    x[63]     c1        181
    x[63]     OBJ       -1144
    x[64]     c2        846
    x[64]     c3        807
    x[64]     c4        78
    x[64]     c5        788
    x[64]     c6        251
    x[64]     c7        631
    x[64]     c8        732
    x[64]     c9        810
    x[64]     c10       385
    x[64]     c11       101
    x[64]     c1        378
    x[64]     OBJ       -1092
    x[65]     c2        114
    x[65]     c3        343
    x[65]     c4        180
    x[65]     c5        41
    x[65]     c6        20
    x[65]     c7        420
    x[65]     c8        563
    x[65]     c9        317
    x[65]     c10       204
    x[65]     c11       128
    x[65]     c1        600
    x[65]     OBJ       -673
    x[66]     c2        981
    x[66]     c3        578
    x[66]     c4        450
    x[66]     c5        554
    x[66]     c6        252
    x[66]     c7        229
    x[66]     c8        588
    x[66]     c9        352
    x[66]     c10       447
    x[66]     c11       670
    x[66]     c1        742
    x[66]     OBJ       -720
    x[67]     c2        776
    x[67]     c3        768
    x[67]     c4        287
    x[67]     c5        198
    x[67]     c6        936
    x[67]     c7        407
    x[67]     c8        10
    x[67]     c9        802
    x[67]     c10       415
    x[67]     c11       175
    x[67]     c1        275
    x[67]     OBJ       -1170
    x[68]     c2        3
    x[68]     c3        594
    x[68]     c4        1
    x[68]     c5        484
    x[68]     c6        992
    x[68]     c7        855
    x[68]     c8        494
    x[68]     c9        212
    x[68]     c10       418
    x[68]     c11       498
    x[68]     c1        601
    x[68]     OBJ       -615
    x[69]     c2        306
    x[69]     c3        1
    x[69]     c4        932
    x[69]     c5        615
    x[69]     c6        253
    x[69]     c7        138
    x[69]     c8        789
    x[69]     c9        39
    x[69]     c10       606
    x[69]     c11       839
    x[69]     c1        951
    x[69]     OBJ       -481
    x[70]     c2        996
    x[70]     c3        885
    x[70]     c4        949
    x[70]     c5        746
    x[70]     c6        328
    x[70]     c7        238
    x[70]     c8        862
    x[70]     c9        639
    x[70]     c10       649
    x[70]     c11       548
    x[70]     c1        731
    x[70]     OBJ       -719
    x[71]     c2        293
    x[71]     c3        446
    x[71]     c4        365
    x[71]     c5        4
    x[71]     c6        731
    x[71]     c7        366
    x[71]     c8        815
    x[71]     c9        913
    x[71]     c10       472
    x[71]     c11       915
    x[71]     c1        166
    x[71]     OBJ       -1434
    x[72]     c2        761
    x[72]     c3        422
    x[72]     c4        686
    x[72]     c5        737
    x[72]     c6        25
    x[72]     c7        776
    x[72]     c8        100
    x[72]     c9        619
    x[72]     c10       268
    x[72]     c11       276
    x[72]     c1        659
    x[72]     OBJ       -718
    x[73]     c2        264
    x[73]     c3        307
    x[73]     c4        392
    x[73]     c5        50
    x[73]     c6        782
    x[73]     c7        302
    x[73]     c8        806
    x[73]     c9        867
    x[73]     c10       455
    x[73]     c11       166
    x[73]     c1        15
    x[73]     OBJ       -1371
    x[74]     c2        401
    x[74]     c3        846
    x[74]     c4        638
    x[74]     c5        257
    x[74]     c6        260
    x[74]     c7        271
    x[74]     c8        16
    x[74]     c9        453
    x[74]     c10       858
    x[74]     c11       791
    x[74]     c1        230
    x[74]     OBJ       -1052
    x[75]     c2        677
    x[75]     c3        607
    x[75]     c4        383
    x[75]     c5        666
    x[75]     c6        441
    x[75]     c7        868
    x[75]     c8        78
    x[75]     c9        47
    x[75]     c10       341
    x[75]     c11       154
    x[75]     c1        577
    x[75]     OBJ       -476
    x[76]     c2        645
    x[76]     c3        128
    x[76]     c4        266
    x[76]     c5        913
    x[76]     c6        904
    x[76]     c7        624
    x[76]     c8        982
    x[76]     c9        138
    x[76]     c10       498
    x[76]     c11       433
    x[76]     c1        807
    x[76]     OBJ       -782
    x[77]     c2        911
    x[77]     c3        770
    x[77]     c4        769
    x[77]     c5        336
    x[77]     c6        375
    x[77]     c7        272
    x[77]     c8        262
    x[77]     c9        105
    x[77]     c10       563
    x[77]     c11       936
    x[77]     c1        420
    x[77]     OBJ       -973
    x[78]     c2        118
    x[78]     c3        608
    x[78]     c4        334
    x[78]     c5        302
    x[78]     c6        548
    x[78]     c7        3
    x[78]     c8        577
    x[78]     c9        432
    x[78]     c10       517
    x[78]     c11       787
    x[78]     c1        862
    x[78]     OBJ       -540
    x[79]     c2        318
    x[79]     c3        745
    x[79]     c4        578
    x[79]     c5        552
    x[79]     c6        649
    x[79]     c7        222
    x[79]     c8        21
    x[79]     c9        417
    x[79]     c10       891
    x[79]     c11       799
    x[79]     c1        974
    x[79]     OBJ       -454
    x[80]     c2        979
    x[80]     c3        186
    x[80]     c4        784
    x[80]     c5        173
    x[80]     c6        488
    x[80]     c7        462
    x[80]     c8        57
    x[80]     c9        673
    x[80]     c10       381
    x[80]     c11       287
    x[80]     c1        991
    x[80]     OBJ       -513
    x[81]     c2        235
    x[81]     c3        290
    x[81]     c4        640
    x[81]     c5        682
    x[81]     c6        510
    x[81]     c7        600
    x[81]     c8        597
    x[81]     c9        116
    x[81]     c10       785
    x[81]     c11       433
    x[81]     c1        795
    x[81]     OBJ       -694
    x[82]     c2        271
    x[82]     c3        593
    x[82]     c4        876
    x[82]     c5        747
    x[82]     c6        584
    x[82]     c7        839
    x[82]     c8        375
    x[82]     c9        323
    x[82]     c10       123
    x[82]     c11       506
    x[82]     c1        938
    x[82]     OBJ       -242
    x[83]     c2        874
    x[83]     c3        868
    x[83]     c4        900
    x[83]     c5        646
    x[83]     c6        1
    x[83]     c7        937
    x[83]     c8        599
    x[83]     c9        937
    x[83]     c10       426
    x[83]     c11       137
    x[83]     c1        792
    x[83]     OBJ       -699
    x[84]     c2        617
    x[84]     c3        493
    x[84]     c4        87
    x[84]     c5        453
    x[84]     c6        520
    x[84]     c7        267
    x[84]     c8        498
    x[84]     c9        73
    x[84]     c10       91
    x[84]     c11       70
    x[84]     c1        647
    x[84]     OBJ       -589
    x[85]     c2        719
    x[85]     c3        678
    x[85]     c4        116
    x[85]     c5        896
    x[85]     c6        609
    x[85]     c7        347
    x[85]     c8        731
    x[85]     c9        154
    x[85]     c10       444
    x[85]     c11       39
    x[85]     c1        59
    x[85]     OBJ       -1305
    x[86]     c2        384
    x[86]     c3        197
    x[86]     c4        173
    x[86]     c5        752
    x[86]     c6        605
    x[86]     c7        957
    x[86]     c8        911
    x[86]     c9        90
    x[86]     c10       246
    x[86]     c11       280
    x[86]     c1        991
    x[86]     OBJ       -375
    x[87]     c2        201
    x[87]     c3        566
    x[87]     c4        540
    x[87]     c5        183
    x[87]     c6        139
    x[87]     c7        453
    x[87]     c8        267
    x[87]     c9        252
    x[87]     c10       374
    x[87]     c11       842
    x[87]     c1        759
    x[87]     OBJ       -600
    x[88]     c2        257
    x[88]     c3        127
    x[88]     c4        174
    x[88]     c5        599
    x[88]     c6        903
    x[88]     c7        716
    x[88]     c8        167
    x[88]     c9        406
    x[88]     c10       185
    x[88]     c11       594
    x[88]     c1        627
    x[88]     OBJ       -627
    x[89]     c2        201
    x[89]     c3        496
    x[89]     c4        182
    x[89]     c5        240
    x[89]     c6        74
    x[89]     c7        766
    x[89]     c8        843
    x[89]     c9        90
    x[89]     c10       312
    x[89]     c11       379
    x[89]     c1        328
    x[89]     OBJ       -940
    x[90]     c2        115
    x[90]     c3        914
    x[90]     c4        593
    x[90]     c5        493
    x[90]     c6        83
    x[90]     c7        770
    x[90]     c8        751
    x[90]     c9        398
    x[90]     c10       421
    x[90]     c11       511
    x[90]     c1        902
    x[90]     OBJ       -292
    x[91]     c2        277
    x[91]     c3        810
    x[91]     c4        488
    x[91]     c5        699
    x[91]     c6        429
    x[91]     c7        425
    x[91]     c8        565
    x[91]     c9        5
    x[91]     c10       608
    x[91]     c11       213
    x[91]     c1        629
    x[91]     OBJ       -666
    x[92]     c2        980
    x[92]     c3        364
    x[92]     c4        112
    x[92]     c5        694
    x[92]     c6        975
    x[92]     c7        444
    x[92]     c8        225
    x[92]     c9        195
    x[92]     c10       66
    x[92]     c11       597
    x[92]     c1        510
    x[92]     OBJ       -746
    x[93]     c2        860
    x[93]     c3        887
    x[93]     c4        831
    x[93]     c5        339
    x[93]     c6        501
    x[93]     c7        955
    x[93]     c8        402
    x[93]     c9        727
    x[93]     c10       429
    x[93]     c11       108
    x[93]     c1        103
    x[93]     OBJ       -1426
    x[94]     c2        146
    x[94]     c3        132
    x[94]     c4        437
    x[94]     c5        361
    x[94]     c6        637
    x[94]     c7        801
    x[94]     c8        916
    x[94]     c9        461
    x[94]     c10       778
    x[94]     c11       18
    x[94]     c1        788
    x[94]     OBJ       -561
    x[95]     c2        200
    x[95]     c3        213
    x[95]     c4        257
    x[95]     c5        621
    x[95]     c6        451
    x[95]     c7        765
    x[95]     c8        279
    x[95]     c9        20
    x[95]     c10       193
    x[95]     c11       453
    x[95]     c1        73
    x[95]     OBJ       -1054
    x[96]     c2        398
    x[96]     c3        685
    x[96]     c4        192
    x[96]     c5        668
    x[96]     c6        514
    x[96]     c7        52
    x[96]     c8        107
    x[96]     c9        47
    x[96]     c10       837
    x[96]     c11       902
    x[96]     c1        379
    x[96]     OBJ       -979
    x[97]     c2        604
    x[97]     c3        243
    x[97]     c4        6
    x[97]     c5        674
    x[97]     c6        435
    x[97]     c7        102
    x[97]     c8        348
    x[97]     c9        838
    x[97]     c10       381
    x[97]     c11       574
    x[97]     c1        573
    x[97]     OBJ       -692
    x[98]     c2        97
    x[98]     c3        390
    x[98]     c4        567
    x[98]     c5        870
    x[98]     c6        410
    x[98]     c7        766
    x[98]     c8        2
    x[98]     c9        207
    x[98]     c10       884
    x[98]     c11       107
    x[98]     c1        783
    x[98]     OBJ       -608
    x[99]     c2        301
    x[99]     c3        878
    x[99]     c4        239
    x[99]     c5        113
    x[99]     c6        205
    x[99]     c7        474
    x[99]     c8        541
    x[99]     c9        6
    x[99]     c10       130
    x[99]     c11       333
    x[99]     c1        310
    x[99]     OBJ       -880
    x[100]    c2        686
    x[100]    c3        611
    x[100]    c4        467
    x[100]    c5        880
    x[100]    c6        829
    x[100]    c7        754
    x[100]    c8        938
    x[100]    c9        185
    x[100]    c10       247
    x[100]    c11       500
    x[100]    c1        38
    x[100]    OBJ       -1478
RHS
    rhs       c2        25307
    rhs       c3        25436
    rhs       c4        23390
    rhs       c5        24119
    rhs       c6        23307
    rhs       c7        25248
    rhs       c8        24830
    rhs       c9        23108
    rhs       c10       22625
    rhs       c11       23398
    rhs       c1        2567
RANGES
BOUNDS
 LO bounds    ss[1]     0
 PL bounds    ss[1]
 MI bounds    s[1]
 UP bounds    s[1]      0
 MI bounds    s[2]
 UP bounds    s[2]      0
 MI bounds    s[3]
 UP bounds    s[3]      0
 MI bounds    s[4]
 UP bounds    s[4]      0
 MI bounds    s[5]
 UP bounds    s[5]      0
 MI bounds    s[6]
 UP bounds    s[6]      0
 MI bounds    s[7]
 UP bounds    s[7]      0
 MI bounds    s[8]
 UP bounds    s[8]      0
 MI bounds    s[9]
 UP bounds    s[9]      0
 MI bounds    s[10]
 UP bounds    s[10]     0
 BV bounds    x[1]
 BV bounds    x[2]
 BV bounds    x[3]
 BV bounds    x[4]
 BV bounds    x[5]
 BV bounds    x[6]
 BV bounds    x[7]
 BV bounds    x[8]
 BV bounds    x[9]
 BV bounds    x[10]
 BV bounds    x[11]
 BV bounds    x[12]
 BV bounds    x[13]
 BV bounds    x[14]
 BV bounds    x[15]
 BV bounds    x[16]
 BV bounds    x[17]
 BV bounds    x[18]
 BV bounds    x[19]
 BV bounds    x[20]
 BV bounds    x[21]
 BV bounds    x[22]
 BV bounds    x[23]
 BV bounds    x[24]
 BV bounds    x[25]
 BV bounds    x[26]
 BV bounds    x[27]
 BV bounds    x[28]
 BV bounds    x[29]
 BV bounds    x[30]
 BV bounds    x[31]
 BV bounds    x[32]
 BV bounds    x[33]
 BV bounds    x[34]
 BV bounds    x[35]
 BV bounds    x[36]
 BV bounds    x[37]
 BV bounds    x[38]
 BV bounds    x[39]
 BV bounds    x[40]
 BV bounds    x[41]
 BV bounds    x[42]
 BV bounds    x[43]
 BV bounds    x[44]
 BV bounds    x[45]
 BV bounds    x[46]
 BV bounds    x[47]
 BV bounds    x[48]
 BV bounds    x[49]
 BV bounds    x[50]
 BV bounds    x[51]
 BV bounds    x[52]
 BV bounds    x[53]
 BV bounds    x[54]
 BV bounds    x[55]
 BV bounds    x[56]
 BV bounds    x[57]
 BV bounds    x[58]
 BV bounds    x[59]
 BV bounds    x[60]
 BV bounds    x[61]
 BV bounds    x[62]
 BV bounds    x[63]
 BV bounds    x[64]
 BV bounds    x[65]
 BV bounds    x[66]
 BV bounds    x[67]
 BV bounds    x[68]
 BV bounds    x[69]
 BV bounds    x[70]
 BV bounds    x[71]
 BV bounds    x[72]
 BV bounds    x[73]
 BV bounds    x[74]
 BV bounds    x[75]
 BV bounds    x[76]
 BV bounds    x[77]
 BV bounds    x[78]
 BV bounds    x[79]
 BV bounds    x[80]
 BV bounds    x[81]
 BV bounds    x[82]
 BV bounds    x[83]
 BV bounds    x[84]
 BV bounds    x[85]
 BV bounds    x[86]
 BV bounds    x[87]
 BV bounds    x[88]
 BV bounds    x[89]
 BV bounds    x[90]
 BV bounds    x[91]
 BV bounds    x[92]
 BV bounds    x[93]
 BV bounds    x[94]
 BV bounds    x[95]
 BV bounds    x[96]
 BV bounds    x[97]
 BV bounds    x[98]
 BV bounds    x[99]
 BV bounds    x[100]
ENDATA
